28 28
22
3 3 10 16
3 4 17 24
3 5 0 23
3 6 17 0
3 7 25 0
3 8 17 6
3 9 10 19
3 10 17 14
3 11 7 0
3 16 10 0
3 17 7 11
3 21 25 7
3 23 0 0
4 3 3 25
4 4 3 0
4 5 13 23
4 8 3 4
4 13 3 12
4 23 13 0
5 6 20 0
5 9 20 19
5 13 20 6
